Route #1: 1 45 3 25 63 47 46 14 20 1
Route #2: 1 41 55 9 21 7 17 32 15 1
Route #3: 1 53 59 8 42 10 2 61 13 50 1
Route #4: 1 40 26 52 29 56 54 48 16 1
Route #5: 1 57 23 31 43 58 28 30 1
Route #6: 1 34 24 27 35 51 1
Route #7: 1 4 18 38 22 62 6 1
Route #8: 1 19 33 5 49 37 36 11 1
Route #9: 1 12 60 39 44 1
cost 3853.279008669029